\ Model multiRobot
\ LP format - for model browsing. Use MPS format to capture full model detail.
Minimize
  setSlower + 0 F(1)(3) + 0 F(1)(5) + 0 F(1)(6) + 0 F(1)(7) + 0 F(1)(8)
   + 0 F(1)(9) + 0 F(2)(4) + 0 F(2)(6) + 0 F(2)(7) + 0 F(2)(8) + 0 F(2)(9)
   + 0 F(3)(1) + 0 F(3)(4) + 0 F(3)(5) + 0 F(3)(7) + 0 F(3)(8) + 0 F(3)(9)
   + 0 F(4)(2) + 0 F(4)(3) + 0 F(4)(6) + 0 F(4)(8) + 0 F(4)(9) + 0 F(5)(1)
   + 0 F(5)(3) + 0 F(5)(7) + 0 F(5)(9) + 0 F(6)(1) + 0 F(6)(2) + 0 F(6)(4)
   + 0 F(6)(7) + 0 F(6)(8) + 0 F(7)(1) + 0 F(7)(2) + 0 F(7)(3) + 0 F(7)(5)
   + 0 F(7)(6) + 0 F(7)(9) + 0 F(8)(1) + 0 F(8)(2) + 0 F(8)(3) + 0 F(8)(4)
   + 0 F(8)(6) + 0 F(9)(1) + 0 F(9)(2) + 0 F(9)(3) + 0 F(9)(4) + 0 F(9)(5)
   + 0 F(9)(7) + 0 y(1)(3)(1) + 0 y(1)(3)(2) + 0 y(1)(3)(3) + 0 y(1)(5)(1)
   + 0 y(1)(5)(2) + 0 y(1)(5)(3) + 0 y(1)(6)(1) + 0 y(1)(6)(2)
   + 0 y(1)(6)(3) + 0 y(1)(7)(1) + 0 y(1)(7)(2) + 0 y(1)(7)(3)
   + 0 y(1)(8)(1) + 0 y(1)(8)(2) + 0 y(1)(8)(3) + 0 y(1)(9)(1)
   + 0 y(1)(9)(2) + 0 y(1)(9)(3) + 0 y(2)(4)(1) + 0 y(2)(4)(2)
   + 0 y(2)(4)(3) + 0 y(2)(6)(1) + 0 y(2)(6)(2) + 0 y(2)(6)(3)
   + 0 y(2)(7)(1) + 0 y(2)(7)(2) + 0 y(2)(7)(3) + 0 y(2)(8)(1)
   + 0 y(2)(8)(2) + 0 y(2)(8)(3) + 0 y(2)(9)(1) + 0 y(2)(9)(2)
   + 0 y(2)(9)(3) + 0 y(3)(1)(1) + 0 y(3)(1)(2) + 0 y(3)(1)(3)
   + 0 y(3)(4)(1) + 0 y(3)(4)(2) + 0 y(3)(4)(3) + 0 y(3)(5)(1)
   + 0 y(3)(5)(2) + 0 y(3)(5)(3) + 0 y(3)(7)(1) + 0 y(3)(7)(2)
   + 0 y(3)(7)(3) + 0 y(3)(8)(1) + 0 y(3)(8)(2) + 0 y(3)(8)(3)
   + 0 y(3)(9)(1) + 0 y(3)(9)(2) + 0 y(3)(9)(3) + 0 y(4)(2)(1)
   + 0 y(4)(2)(2) + 0 y(4)(2)(3) + 0 y(4)(3)(1) + 0 y(4)(3)(2)
   + 0 y(4)(3)(3) + 0 y(4)(6)(1) + 0 y(4)(6)(2) + 0 y(4)(6)(3)
   + 0 y(4)(8)(1) + 0 y(4)(8)(2) + 0 y(4)(8)(3) + 0 y(4)(9)(1)
   + 0 y(4)(9)(2) + 0 y(4)(9)(3) + 0 y(5)(1)(1) + 0 y(5)(1)(2)
   + 0 y(5)(1)(3) + 0 y(5)(3)(1) + 0 y(5)(3)(2) + 0 y(5)(3)(3)
   + 0 y(5)(7)(1) + 0 y(5)(7)(2) + 0 y(5)(7)(3) + 0 y(5)(9)(1)
   + 0 y(5)(9)(2) + 0 y(5)(9)(3) + 0 y(6)(1)(1) + 0 y(6)(1)(2)
   + 0 y(6)(1)(3) + 0 y(6)(2)(1) + 0 y(6)(2)(2) + 0 y(6)(2)(3)
   + 0 y(6)(4)(1) + 0 y(6)(4)(2) + 0 y(6)(4)(3) + 0 y(6)(7)(1)
   + 0 y(6)(7)(2) + 0 y(6)(7)(3) + 0 y(6)(8)(1) + 0 y(6)(8)(2)
   + 0 y(6)(8)(3) + 0 y(7)(1)(1) + 0 y(7)(1)(2) + 0 y(7)(1)(3)
   + 0 y(7)(2)(1) + 0 y(7)(2)(2) + 0 y(7)(2)(3) + 0 y(7)(3)(1)
   + 0 y(7)(3)(2) + 0 y(7)(3)(3) + 0 y(7)(5)(1) + 0 y(7)(5)(2)
   + 0 y(7)(5)(3) + 0 y(7)(6)(1) + 0 y(7)(6)(2) + 0 y(7)(6)(3)
   + 0 y(7)(9)(1) + 0 y(7)(9)(2) + 0 y(7)(9)(3) + 0 y(8)(1)(1)
   + 0 y(8)(1)(2) + 0 y(8)(1)(3) + 0 y(8)(2)(1) + 0 y(8)(2)(2)
   + 0 y(8)(2)(3) + 0 y(8)(3)(1) + 0 y(8)(3)(2) + 0 y(8)(3)(3)
   + 0 y(8)(4)(1) + 0 y(8)(4)(2) + 0 y(8)(4)(3) + 0 y(8)(6)(1)
   + 0 y(8)(6)(2) + 0 y(8)(6)(3) + 0 y(9)(1)(1) + 0 y(9)(1)(2)
   + 0 y(9)(1)(3) + 0 y(9)(2)(1) + 0 y(9)(2)(2) + 0 y(9)(2)(3)
   + 0 y(9)(3)(1) + 0 y(9)(3)(2) + 0 y(9)(3)(3) + 0 y(9)(4)(1)
   + 0 y(9)(4)(2) + 0 y(9)(4)(3) + 0 y(9)(5)(1) + 0 y(9)(5)(2)
   + 0 y(9)(5)(3) + 0 y(9)(7)(1) + 0 y(9)(7)(2) + 0 y(9)(7)(3)
Subject To
 constr(0): 10 x(1)(1) + 6 x(2)(1) + x(3)(1) + 7 x(4)(1) + 5 x(5)(1)
   + 10 x(6)(1) + 5 x(7)(1) + 3 x(8)(1) + 6 x(9)(1) - setSlower <= 0
 constr(1): 10 x(1)(2) + 6 x(2)(2) + x(3)(2) + 7 x(4)(2) + 5 x(5)(2)
   + 10 x(6)(2) + 5 x(7)(2) + 3 x(8)(2) + 6 x(9)(2) - setSlower <= 0
 constr(2): 10 x(1)(3) + 6 x(2)(3) + x(3)(3) + 7 x(4)(3) + 5 x(5)(3)
   + 10 x(6)(3) + 5 x(7)(3) + 3 x(8)(3) + 6 x(9)(3) - setSlower <= 0
 constr(3): x(1)(1) + x(1)(2) + x(1)(3) = 1
 constr(4): x(2)(1) + x(2)(2) + x(2)(3) = 1
 constr(5): x(3)(1) + x(3)(2) + x(3)(3) = 1
 constr(6): x(4)(1) + x(4)(2) + x(4)(3) = 1
 constr(7): x(5)(1) + x(5)(2) + x(5)(3) = 1
 constr(8): x(6)(1) + x(6)(2) + x(6)(3) = 1
 constr(9): x(7)(1) + x(7)(2) + x(7)(3) = 1
 constr(10): x(8)(1) + x(8)(2) + x(8)(3) = 1
 constr(11): x(9)(1) + x(9)(2) + x(9)(3) = 1
 constr(12): - x(1)(1) + r(1)(1) <= 0
 constr(13): - x(1)(2) + r(1)(2) <= 0
 constr(14): - x(1)(3) + r(1)(3) <= 0
 constr(15): - x(2)(1) + r(2)(1) <= 0
 constr(16): - x(2)(2) + r(2)(2) <= 0
 constr(17): - x(2)(3) + r(2)(3) <= 0
 constr(18): - x(3)(1) + r(3)(1) <= 0
 constr(19): - x(3)(2) + r(3)(2) <= 0
 constr(20): - x(3)(3) + r(3)(3) <= 0
 constr(21): - x(4)(1) + r(4)(1) <= 0
 constr(22): - x(4)(2) + r(4)(2) <= 0
 constr(23): - x(4)(3) + r(4)(3) <= 0
 constr(24): - x(5)(1) + r(5)(1) <= 0
 constr(25): - x(5)(2) + r(5)(2) <= 0
 constr(26): - x(5)(3) + r(5)(3) <= 0
 constr(27): - x(6)(1) + r(6)(1) <= 0
 constr(28): - x(6)(2) + r(6)(2) <= 0
 constr(29): - x(6)(3) + r(6)(3) <= 0
 constr(30): - x(7)(1) + r(7)(1) <= 0
 constr(31): - x(7)(2) + r(7)(2) <= 0
 constr(32): - x(7)(3) + r(7)(3) <= 0
 constr(33): - x(8)(1) + r(8)(1) <= 0
 constr(34): - x(8)(2) + r(8)(2) <= 0
 constr(35): - x(8)(3) + r(8)(3) <= 0
 constr(36): - x(9)(1) + r(9)(1) <= 0
 constr(37): - x(9)(2) + r(9)(2) <= 0
 constr(38): - x(9)(3) + r(9)(3) <= 0
 constr(39): r(1)(1) + r(2)(1) + r(3)(1) + r(4)(1) + r(5)(1) + r(6)(1)
   + r(7)(1) + r(8)(1) + r(9)(1) = 1
 constr(40): r(1)(2) + r(2)(2) + r(3)(2) + r(4)(2) + r(5)(2) + r(6)(2)
   + r(7)(2) + r(8)(2) + r(9)(2) = 1
 constr(41): r(1)(3) + r(2)(3) + r(3)(3) + r(4)(3) + r(5)(3) + r(6)(3)
   + r(7)(3) + r(8)(3) + r(9)(3) = 1
 constr(42): x(1)(1) + 9 r(1)(1) <= 10
 constr(43): x(1)(2) + 9 r(1)(2) <= 10
 constr(44): x(1)(3) + 9 r(1)(3) <= 10
 constr(45): x(1)(1) + x(2)(1) + 9 r(2)(1) <= 10
 constr(46): x(1)(2) + x(2)(2) + 9 r(2)(2) <= 10
 constr(47): x(1)(3) + x(2)(3) + 9 r(2)(3) <= 10
 constr(48): x(1)(1) + x(2)(1) + x(3)(1) + 9 r(3)(1) <= 10
 constr(49): x(1)(2) + x(2)(2) + x(3)(2) + 9 r(3)(2) <= 10
 constr(50): x(1)(3) + x(2)(3) + x(3)(3) + 9 r(3)(3) <= 10
 constr(51): x(1)(1) + x(2)(1) + x(3)(1) + x(4)(1) + 9 r(4)(1) <= 10
 constr(52): x(1)(2) + x(2)(2) + x(3)(2) + x(4)(2) + 9 r(4)(2) <= 10
 constr(53): x(1)(3) + x(2)(3) + x(3)(3) + x(4)(3) + 9 r(4)(3) <= 10
 constr(54): x(1)(1) + x(2)(1) + x(3)(1) + x(4)(1) + x(5)(1) + 9 r(5)(1)
   <= 10
 constr(55): x(1)(2) + x(2)(2) + x(3)(2) + x(4)(2) + x(5)(2) + 9 r(5)(2)
   <= 10
 constr(56): x(1)(3) + x(2)(3) + x(3)(3) + x(4)(3) + x(5)(3) + 9 r(5)(3)
   <= 10
 constr(57): x(1)(1) + x(2)(1) + x(3)(1) + x(4)(1) + x(5)(1) + x(6)(1)
   + 9 r(6)(1) <= 10
 constr(58): x(1)(2) + x(2)(2) + x(3)(2) + x(4)(2) + x(5)(2) + x(6)(2)
   + 9 r(6)(2) <= 10
 constr(59): x(1)(3) + x(2)(3) + x(3)(3) + x(4)(3) + x(5)(3) + x(6)(3)
   + 9 r(6)(3) <= 10
 constr(60): x(1)(1) + x(2)(1) + x(3)(1) + x(4)(1) + x(5)(1) + x(6)(1)
   + x(7)(1) + 9 r(7)(1) <= 10
 constr(61): x(1)(2) + x(2)(2) + x(3)(2) + x(4)(2) + x(5)(2) + x(6)(2)
   + x(7)(2) + 9 r(7)(2) <= 10
 constr(62): x(1)(3) + x(2)(3) + x(3)(3) + x(4)(3) + x(5)(3) + x(6)(3)
   + x(7)(3) + 9 r(7)(3) <= 10
 constr(63): x(1)(1) + x(2)(1) + x(3)(1) + x(4)(1) + x(5)(1) + x(6)(1)
   + x(7)(1) + x(8)(1) + 9 r(8)(1) <= 10
 constr(64): x(1)(2) + x(2)(2) + x(3)(2) + x(4)(2) + x(5)(2) + x(6)(2)
   + x(7)(2) + x(8)(2) + 9 r(8)(2) <= 10
 constr(65): x(1)(3) + x(2)(3) + x(3)(3) + x(4)(3) + x(5)(3) + x(6)(3)
   + x(7)(3) + x(8)(3) + 9 r(8)(3) <= 10
 constr(66): x(1)(1) + x(2)(1) + x(3)(1) + x(4)(1) + x(5)(1) + x(6)(1)
   + x(7)(1) + x(8)(1) + x(9)(1) + 9 r(9)(1) <= 10
 constr(67): x(1)(2) + x(2)(2) + x(3)(2) + x(4)(2) + x(5)(2) + x(6)(2)
   + x(7)(2) + x(8)(2) + x(9)(2) + 9 r(9)(2) <= 10
 constr(68): x(1)(3) + x(2)(3) + x(3)(3) + x(4)(3) + x(5)(3) + x(6)(3)
   + x(7)(3) + x(8)(3) + x(9)(3) + 9 r(9)(3) <= 10
 constr(69): - 9 r(1)(1) - 9 r(1)(2) - 9 r(1)(3) + F(10)(1) <= 0
 constr(70): - 9 r(2)(1) - 9 r(2)(2) - 9 r(2)(3) + F(10)(2) <= 0
 constr(71): - 9 r(3)(1) - 9 r(3)(2) - 9 r(3)(3) + F(10)(3) <= 0
 constr(72): - 9 r(4)(1) - 9 r(4)(2) - 9 r(4)(3) + F(10)(4) <= 0
 constr(73): - 9 r(5)(1) - 9 r(5)(2) - 9 r(5)(3) + F(10)(5) <= 0
 constr(74): - 9 r(6)(1) - 9 r(6)(2) - 9 r(6)(3) + F(10)(6) <= 0
 constr(75): - 9 r(7)(1) - 9 r(7)(2) - 9 r(7)(3) + F(10)(7) <= 0
 constr(76): - 9 r(8)(1) - 9 r(8)(2) - 9 r(8)(3) + F(10)(8) <= 0
 constr(77): - 9 r(9)(1) - 9 r(9)(2) - 9 r(9)(3) + F(10)(9) <= 0
 constr(78): F(10)(1) + F(10)(2) + F(10)(3) + F(10)(4) + F(10)(5)
   + F(10)(6) + F(10)(7) + F(10)(8) + F(10)(9) = 9
 constr(79): - F(1)(2) - F(1)(4) + F(2)(1) + F(4)(1) + F(10)(1) = 1
 constr(80): F(1)(2) - F(2)(1) - F(2)(3) - F(2)(5) + F(3)(2) + F(5)(2)
   + F(10)(2) = 1
 constr(81): F(2)(3) - F(3)(2) - F(3)(6) + F(6)(3) + F(10)(3) = 1
 constr(82): F(1)(4) - F(4)(1) - F(4)(5) - F(4)(7) + F(5)(4) + F(7)(4)
   + F(10)(4) = 1
 constr(83): F(2)(5) + F(4)(5) - F(5)(2) - F(5)(4) - F(5)(6) - F(5)(8)
   + F(6)(5) + F(8)(5) + F(10)(5) = 1
 constr(84): F(3)(6) + F(5)(6) - F(6)(3) - F(6)(5) - F(6)(9) + F(9)(6)
   + F(10)(6) = 1
 constr(85): F(4)(7) - F(7)(4) - F(7)(8) + F(8)(7) + F(10)(7) = 1
 constr(86): F(5)(8) + F(7)(8) - F(8)(5) - F(8)(7) - F(8)(9) + F(9)(8)
   + F(10)(8) = 1
 constr(87): F(6)(9) + F(8)(9) - F(9)(6) - F(9)(8) + F(10)(9) = 1
 constr(88): F(1)(2) - 9 y(1)(2)(1) - 9 y(1)(2)(2) - 9 y(1)(2)(3) <= 0
 constr(89): - x(1)(1) + y(1)(2)(1) <= 0
 constr(90): - x(2)(1) + y(1)(2)(1) <= 0
 constr(91): y(1)(2)(1) >= 0
 constr(92): - x(1)(1) - x(2)(1) + y(1)(2)(1) >= -1
 constr(93): y(1)(2)(1) - y(2)(1)(1) = 0
 constr(94): - x(1)(2) + y(1)(2)(2) <= 0
 constr(95): - x(2)(2) + y(1)(2)(2) <= 0
 constr(96): y(1)(2)(2) >= 0
 constr(97): - x(1)(2) - x(2)(2) + y(1)(2)(2) >= -1
 constr(98): y(1)(2)(2) - y(2)(1)(2) = 0
 constr(99): - x(1)(3) + y(1)(2)(3) <= 0
 constr(100): - x(2)(3) + y(1)(2)(3) <= 0
 constr(101): y(1)(2)(3) >= 0
 constr(102): - x(1)(3) - x(2)(3) + y(1)(2)(3) >= -1
 constr(103): y(1)(2)(3) - y(2)(1)(3) = 0
 constr(104): F(1)(4) - 9 y(1)(4)(1) - 9 y(1)(4)(2) - 9 y(1)(4)(3) <= 0
 constr(105): - x(1)(1) + y(1)(4)(1) <= 0
 constr(106): - x(4)(1) + y(1)(4)(1) <= 0
 constr(107): y(1)(4)(1) >= 0
 constr(108): - x(1)(1) - x(4)(1) + y(1)(4)(1) >= -1
 constr(109): y(1)(4)(1) - y(4)(1)(1) = 0
 constr(110): - x(1)(2) + y(1)(4)(2) <= 0
 constr(111): - x(4)(2) + y(1)(4)(2) <= 0
 constr(112): y(1)(4)(2) >= 0
 constr(113): - x(1)(2) - x(4)(2) + y(1)(4)(2) >= -1
 constr(114): y(1)(4)(2) - y(4)(1)(2) = 0
 constr(115): - x(1)(3) + y(1)(4)(3) <= 0
 constr(116): - x(4)(3) + y(1)(4)(3) <= 0
 constr(117): y(1)(4)(3) >= 0
 constr(118): - x(1)(3) - x(4)(3) + y(1)(4)(3) >= -1
 constr(119): y(1)(4)(3) - y(4)(1)(3) = 0
 constr(120): F(2)(1) - 9 y(2)(1)(1) - 9 y(2)(1)(2) - 9 y(2)(1)(3) <= 0
 constr(121): F(2)(3) - 9 y(2)(3)(1) - 9 y(2)(3)(2) - 9 y(2)(3)(3) <= 0
 constr(122): - x(2)(1) + y(2)(3)(1) <= 0
 constr(123): - x(3)(1) + y(2)(3)(1) <= 0
 constr(124): y(2)(3)(1) >= 0
 constr(125): - x(2)(1) - x(3)(1) + y(2)(3)(1) >= -1
 constr(126): y(2)(3)(1) - y(3)(2)(1) = 0
 constr(127): - x(2)(2) + y(2)(3)(2) <= 0
 constr(128): - x(3)(2) + y(2)(3)(2) <= 0
 constr(129): y(2)(3)(2) >= 0
 constr(130): - x(2)(2) - x(3)(2) + y(2)(3)(2) >= -1
 constr(131): y(2)(3)(2) - y(3)(2)(2) = 0
 constr(132): - x(2)(3) + y(2)(3)(3) <= 0
 constr(133): - x(3)(3) + y(2)(3)(3) <= 0
 constr(134): y(2)(3)(3) >= 0
 constr(135): - x(2)(3) - x(3)(3) + y(2)(3)(3) >= -1
 constr(136): y(2)(3)(3) - y(3)(2)(3) = 0
 constr(137): F(2)(5) - 9 y(2)(5)(1) - 9 y(2)(5)(2) - 9 y(2)(5)(3) <= 0
 constr(138): - x(2)(1) + y(2)(5)(1) <= 0
 constr(139): - x(5)(1) + y(2)(5)(1) <= 0
 constr(140): y(2)(5)(1) >= 0
 constr(141): - x(2)(1) - x(5)(1) + y(2)(5)(1) >= -1
 constr(142): y(2)(5)(1) - y(5)(2)(1) = 0
 constr(143): - x(2)(2) + y(2)(5)(2) <= 0
 constr(144): - x(5)(2) + y(2)(5)(2) <= 0
 constr(145): y(2)(5)(2) >= 0
 constr(146): - x(2)(2) - x(5)(2) + y(2)(5)(2) >= -1
 constr(147): y(2)(5)(2) - y(5)(2)(2) = 0
 constr(148): - x(2)(3) + y(2)(5)(3) <= 0
 constr(149): - x(5)(3) + y(2)(5)(3) <= 0
 constr(150): y(2)(5)(3) >= 0
 constr(151): - x(2)(3) - x(5)(3) + y(2)(5)(3) >= -1
 constr(152): y(2)(5)(3) - y(5)(2)(3) = 0
 constr(153): F(3)(2) - 9 y(3)(2)(1) - 9 y(3)(2)(2) - 9 y(3)(2)(3) <= 0
 constr(154): F(3)(6) - 9 y(3)(6)(1) - 9 y(3)(6)(2) - 9 y(3)(6)(3) <= 0
 constr(155): - x(3)(1) + y(3)(6)(1) <= 0
 constr(156): - x(6)(1) + y(3)(6)(1) <= 0
 constr(157): y(3)(6)(1) >= 0
 constr(158): - x(3)(1) - x(6)(1) + y(3)(6)(1) >= -1
 constr(159): y(3)(6)(1) - y(6)(3)(1) = 0
 constr(160): - x(3)(2) + y(3)(6)(2) <= 0
 constr(161): - x(6)(2) + y(3)(6)(2) <= 0
 constr(162): y(3)(6)(2) >= 0
 constr(163): - x(3)(2) - x(6)(2) + y(3)(6)(2) >= -1
 constr(164): y(3)(6)(2) - y(6)(3)(2) = 0
 constr(165): - x(3)(3) + y(3)(6)(3) <= 0
 constr(166): - x(6)(3) + y(3)(6)(3) <= 0
 constr(167): y(3)(6)(3) >= 0
 constr(168): - x(3)(3) - x(6)(3) + y(3)(6)(3) >= -1
 constr(169): y(3)(6)(3) - y(6)(3)(3) = 0
 constr(170): F(4)(1) - 9 y(4)(1)(1) - 9 y(4)(1)(2) - 9 y(4)(1)(3) <= 0
 constr(171): F(4)(5) - 9 y(4)(5)(1) - 9 y(4)(5)(2) - 9 y(4)(5)(3) <= 0
 constr(172): - x(4)(1) + y(4)(5)(1) <= 0
 constr(173): - x(5)(1) + y(4)(5)(1) <= 0
 constr(174): y(4)(5)(1) >= 0
 constr(175): - x(4)(1) - x(5)(1) + y(4)(5)(1) >= -1
 constr(176): y(4)(5)(1) - y(5)(4)(1) = 0
 constr(177): - x(4)(2) + y(4)(5)(2) <= 0
 constr(178): - x(5)(2) + y(4)(5)(2) <= 0
 constr(179): y(4)(5)(2) >= 0
 constr(180): - x(4)(2) - x(5)(2) + y(4)(5)(2) >= -1
 constr(181): y(4)(5)(2) - y(5)(4)(2) = 0
 constr(182): - x(4)(3) + y(4)(5)(3) <= 0
 constr(183): - x(5)(3) + y(4)(5)(3) <= 0
 constr(184): y(4)(5)(3) >= 0
 constr(185): - x(4)(3) - x(5)(3) + y(4)(5)(3) >= -1
 constr(186): y(4)(5)(3) - y(5)(4)(3) = 0
 constr(187): F(4)(7) - 9 y(4)(7)(1) - 9 y(4)(7)(2) - 9 y(4)(7)(3) <= 0
 constr(188): - x(4)(1) + y(4)(7)(1) <= 0
 constr(189): - x(7)(1) + y(4)(7)(1) <= 0
 constr(190): y(4)(7)(1) >= 0
 constr(191): - x(4)(1) - x(7)(1) + y(4)(7)(1) >= -1
 constr(192): y(4)(7)(1) - y(7)(4)(1) = 0
 constr(193): - x(4)(2) + y(4)(7)(2) <= 0
 constr(194): - x(7)(2) + y(4)(7)(2) <= 0
 constr(195): y(4)(7)(2) >= 0
 constr(196): - x(4)(2) - x(7)(2) + y(4)(7)(2) >= -1
 constr(197): y(4)(7)(2) - y(7)(4)(2) = 0
 constr(198): - x(4)(3) + y(4)(7)(3) <= 0
 constr(199): - x(7)(3) + y(4)(7)(3) <= 0
 constr(200): y(4)(7)(3) >= 0
 constr(201): - x(4)(3) - x(7)(3) + y(4)(7)(3) >= -1
 constr(202): y(4)(7)(3) - y(7)(4)(3) = 0
 constr(203): F(5)(2) - 9 y(5)(2)(1) - 9 y(5)(2)(2) - 9 y(5)(2)(3) <= 0
 constr(204): F(5)(4) - 9 y(5)(4)(1) - 9 y(5)(4)(2) - 9 y(5)(4)(3) <= 0
 constr(205): F(5)(6) - 9 y(5)(6)(1) - 9 y(5)(6)(2) - 9 y(5)(6)(3) <= 0
 constr(206): - x(5)(1) + y(5)(6)(1) <= 0
 constr(207): - x(6)(1) + y(5)(6)(1) <= 0
 constr(208): y(5)(6)(1) >= 0
 constr(209): - x(5)(1) - x(6)(1) + y(5)(6)(1) >= -1
 constr(210): y(5)(6)(1) - y(6)(5)(1) = 0
 constr(211): - x(5)(2) + y(5)(6)(2) <= 0
 constr(212): - x(6)(2) + y(5)(6)(2) <= 0
 constr(213): y(5)(6)(2) >= 0
 constr(214): - x(5)(2) - x(6)(2) + y(5)(6)(2) >= -1
 constr(215): y(5)(6)(2) - y(6)(5)(2) = 0
 constr(216): - x(5)(3) + y(5)(6)(3) <= 0
 constr(217): - x(6)(3) + y(5)(6)(3) <= 0
 constr(218): y(5)(6)(3) >= 0
 constr(219): - x(5)(3) - x(6)(3) + y(5)(6)(3) >= -1
 constr(220): y(5)(6)(3) - y(6)(5)(3) = 0
 constr(221): F(5)(8) - 9 y(5)(8)(1) - 9 y(5)(8)(2) - 9 y(5)(8)(3) <= 0
 constr(222): - x(5)(1) + y(5)(8)(1) <= 0
 constr(223): - x(8)(1) + y(5)(8)(1) <= 0
 constr(224): y(5)(8)(1) >= 0
 constr(225): - x(5)(1) - x(8)(1) + y(5)(8)(1) >= -1
 constr(226): y(5)(8)(1) - y(8)(5)(1) = 0
 constr(227): - x(5)(2) + y(5)(8)(2) <= 0
 constr(228): - x(8)(2) + y(5)(8)(2) <= 0
 constr(229): y(5)(8)(2) >= 0
 constr(230): - x(5)(2) - x(8)(2) + y(5)(8)(2) >= -1
 constr(231): y(5)(8)(2) - y(8)(5)(2) = 0
 constr(232): - x(5)(3) + y(5)(8)(3) <= 0
 constr(233): - x(8)(3) + y(5)(8)(3) <= 0
 constr(234): y(5)(8)(3) >= 0
 constr(235): - x(5)(3) - x(8)(3) + y(5)(8)(3) >= -1
 constr(236): y(5)(8)(3) - y(8)(5)(3) = 0
 constr(237): F(6)(3) - 9 y(6)(3)(1) - 9 y(6)(3)(2) - 9 y(6)(3)(3) <= 0
 constr(238): F(6)(5) - 9 y(6)(5)(1) - 9 y(6)(5)(2) - 9 y(6)(5)(3) <= 0
 constr(239): F(6)(9) - 9 y(6)(9)(1) - 9 y(6)(9)(2) - 9 y(6)(9)(3) <= 0
 constr(240): - x(6)(1) + y(6)(9)(1) <= 0
 constr(241): - x(9)(1) + y(6)(9)(1) <= 0
 constr(242): y(6)(9)(1) >= 0
 constr(243): - x(6)(1) - x(9)(1) + y(6)(9)(1) >= -1
 constr(244): y(6)(9)(1) - y(9)(6)(1) = 0
 constr(245): - x(6)(2) + y(6)(9)(2) <= 0
 constr(246): - x(9)(2) + y(6)(9)(2) <= 0
 constr(247): y(6)(9)(2) >= 0
 constr(248): - x(6)(2) - x(9)(2) + y(6)(9)(2) >= -1
 constr(249): y(6)(9)(2) - y(9)(6)(2) = 0
 constr(250): - x(6)(3) + y(6)(9)(3) <= 0
 constr(251): - x(9)(3) + y(6)(9)(3) <= 0
 constr(252): y(6)(9)(3) >= 0
 constr(253): - x(6)(3) - x(9)(3) + y(6)(9)(3) >= -1
 constr(254): y(6)(9)(3) - y(9)(6)(3) = 0
 constr(255): F(7)(4) - 9 y(7)(4)(1) - 9 y(7)(4)(2) - 9 y(7)(4)(3) <= 0
 constr(256): F(7)(8) - 9 y(7)(8)(1) - 9 y(7)(8)(2) - 9 y(7)(8)(3) <= 0
 constr(257): - x(7)(1) + y(7)(8)(1) <= 0
 constr(258): - x(8)(1) + y(7)(8)(1) <= 0
 constr(259): y(7)(8)(1) >= 0
 constr(260): - x(7)(1) - x(8)(1) + y(7)(8)(1) >= -1
 constr(261): y(7)(8)(1) - y(8)(7)(1) = 0
 constr(262): - x(7)(2) + y(7)(8)(2) <= 0
 constr(263): - x(8)(2) + y(7)(8)(2) <= 0
 constr(264): y(7)(8)(2) >= 0
 constr(265): - x(7)(2) - x(8)(2) + y(7)(8)(2) >= -1
 constr(266): y(7)(8)(2) - y(8)(7)(2) = 0
 constr(267): - x(7)(3) + y(7)(8)(3) <= 0
 constr(268): - x(8)(3) + y(7)(8)(3) <= 0
 constr(269): y(7)(8)(3) >= 0
 constr(270): - x(7)(3) - x(8)(3) + y(7)(8)(3) >= -1
 constr(271): y(7)(8)(3) - y(8)(7)(3) = 0
 constr(272): F(8)(5) - 9 y(8)(5)(1) - 9 y(8)(5)(2) - 9 y(8)(5)(3) <= 0
 constr(273): F(8)(7) - 9 y(8)(7)(1) - 9 y(8)(7)(2) - 9 y(8)(7)(3) <= 0
 constr(274): F(8)(9) - 9 y(8)(9)(1) - 9 y(8)(9)(2) - 9 y(8)(9)(3) <= 0
 constr(275): - x(8)(1) + y(8)(9)(1) <= 0
 constr(276): - x(9)(1) + y(8)(9)(1) <= 0
 constr(277): y(8)(9)(1) >= 0
 constr(278): - x(8)(1) - x(9)(1) + y(8)(9)(1) >= -1
 constr(279): y(8)(9)(1) - y(9)(8)(1) = 0
 constr(280): - x(8)(2) + y(8)(9)(2) <= 0
 constr(281): - x(9)(2) + y(8)(9)(2) <= 0
 constr(282): y(8)(9)(2) >= 0
 constr(283): - x(8)(2) - x(9)(2) + y(8)(9)(2) >= -1
 constr(284): y(8)(9)(2) - y(9)(8)(2) = 0
 constr(285): - x(8)(3) + y(8)(9)(3) <= 0
 constr(286): - x(9)(3) + y(8)(9)(3) <= 0
 constr(287): y(8)(9)(3) >= 0
 constr(288): - x(8)(3) - x(9)(3) + y(8)(9)(3) >= -1
 constr(289): y(8)(9)(3) - y(9)(8)(3) = 0
 constr(290): F(9)(6) - 9 y(9)(6)(1) - 9 y(9)(6)(2) - 9 y(9)(6)(3) <= 0
 constr(291): F(9)(8) - 9 y(9)(8)(1) - 9 y(9)(8)(2) - 9 y(9)(8)(3) <= 0
Bounds
Binaries
 x(1)(1) x(1)(2) x(1)(3) x(2)(1) x(2)(2) x(2)(3) x(3)(1) x(3)(2) x(3)(3)
 x(4)(1) x(4)(2) x(4)(3) x(5)(1) x(5)(2) x(5)(3) x(6)(1) x(6)(2) x(6)(3)
 x(7)(1) x(7)(2) x(7)(3) x(8)(1) x(8)(2) x(8)(3) x(9)(1) x(9)(2) x(9)(3)
 r(1)(1) r(1)(2) r(1)(3) r(2)(1) r(2)(2) r(2)(3) r(3)(1) r(3)(2) r(3)(3)
 r(4)(1) r(4)(2) r(4)(3) r(5)(1) r(5)(2) r(5)(3) r(6)(1) r(6)(2) r(6)(3)
 r(7)(1) r(7)(2) r(7)(3) r(8)(1) r(8)(2) r(8)(3) r(9)(1) r(9)(2) r(9)(3)
 y(1)(2)(1) y(1)(2)(2) y(1)(2)(3) y(1)(3)(1) y(1)(3)(2) y(1)(3)(3)
 y(1)(4)(1) y(1)(4)(2) y(1)(4)(3) y(1)(5)(1) y(1)(5)(2) y(1)(5)(3)
 y(1)(6)(1) y(1)(6)(2) y(1)(6)(3) y(1)(7)(1) y(1)(7)(2) y(1)(7)(3)
 y(1)(8)(1) y(1)(8)(2) y(1)(8)(3) y(1)(9)(1) y(1)(9)(2) y(1)(9)(3)
 y(2)(1)(1) y(2)(1)(2) y(2)(1)(3) y(2)(3)(1) y(2)(3)(2) y(2)(3)(3)
 y(2)(4)(1) y(2)(4)(2) y(2)(4)(3) y(2)(5)(1) y(2)(5)(2) y(2)(5)(3)
 y(2)(6)(1) y(2)(6)(2) y(2)(6)(3) y(2)(7)(1) y(2)(7)(2) y(2)(7)(3)
 y(2)(8)(1) y(2)(8)(2) y(2)(8)(3) y(2)(9)(1) y(2)(9)(2) y(2)(9)(3)
 y(3)(1)(1) y(3)(1)(2) y(3)(1)(3) y(3)(2)(1) y(3)(2)(2) y(3)(2)(3)
 y(3)(4)(1) y(3)(4)(2) y(3)(4)(3) y(3)(5)(1) y(3)(5)(2) y(3)(5)(3)
 y(3)(6)(1) y(3)(6)(2) y(3)(6)(3) y(3)(7)(1) y(3)(7)(2) y(3)(7)(3)
 y(3)(8)(1) y(3)(8)(2) y(3)(8)(3) y(3)(9)(1) y(3)(9)(2) y(3)(9)(3)
 y(4)(1)(1) y(4)(1)(2) y(4)(1)(3) y(4)(2)(1) y(4)(2)(2) y(4)(2)(3)
 y(4)(3)(1) y(4)(3)(2) y(4)(3)(3) y(4)(5)(1) y(4)(5)(2) y(4)(5)(3)
 y(4)(6)(1) y(4)(6)(2) y(4)(6)(3) y(4)(7)(1) y(4)(7)(2) y(4)(7)(3)
 y(4)(8)(1) y(4)(8)(2) y(4)(8)(3) y(4)(9)(1) y(4)(9)(2) y(4)(9)(3)
 y(5)(1)(1) y(5)(1)(2) y(5)(1)(3) y(5)(2)(1) y(5)(2)(2) y(5)(2)(3)
 y(5)(3)(1) y(5)(3)(2) y(5)(3)(3) y(5)(4)(1) y(5)(4)(2) y(5)(4)(3)
 y(5)(6)(1) y(5)(6)(2) y(5)(6)(3) y(5)(7)(1) y(5)(7)(2) y(5)(7)(3)
 y(5)(8)(1) y(5)(8)(2) y(5)(8)(3) y(5)(9)(1) y(5)(9)(2) y(5)(9)(3)
 y(6)(1)(1) y(6)(1)(2) y(6)(1)(3) y(6)(2)(1) y(6)(2)(2) y(6)(2)(3)
 y(6)(3)(1) y(6)(3)(2) y(6)(3)(3) y(6)(4)(1) y(6)(4)(2) y(6)(4)(3)
 y(6)(5)(1) y(6)(5)(2) y(6)(5)(3) y(6)(7)(1) y(6)(7)(2) y(6)(7)(3)
 y(6)(8)(1) y(6)(8)(2) y(6)(8)(3) y(6)(9)(1) y(6)(9)(2) y(6)(9)(3)
 y(7)(1)(1) y(7)(1)(2) y(7)(1)(3) y(7)(2)(1) y(7)(2)(2) y(7)(2)(3)
 y(7)(3)(1) y(7)(3)(2) y(7)(3)(3) y(7)(4)(1) y(7)(4)(2) y(7)(4)(3)
 y(7)(5)(1) y(7)(5)(2) y(7)(5)(3) y(7)(6)(1) y(7)(6)(2) y(7)(6)(3)
 y(7)(8)(1) y(7)(8)(2) y(7)(8)(3) y(7)(9)(1) y(7)(9)(2) y(7)(9)(3)
 y(8)(1)(1) y(8)(1)(2) y(8)(1)(3) y(8)(2)(1) y(8)(2)(2) y(8)(2)(3)
 y(8)(3)(1) y(8)(3)(2) y(8)(3)(3) y(8)(4)(1) y(8)(4)(2) y(8)(4)(3)
 y(8)(5)(1) y(8)(5)(2) y(8)(5)(3) y(8)(6)(1) y(8)(6)(2) y(8)(6)(3)
 y(8)(7)(1) y(8)(7)(2) y(8)(7)(3) y(8)(9)(1) y(8)(9)(2) y(8)(9)(3)
 y(9)(1)(1) y(9)(1)(2) y(9)(1)(3) y(9)(2)(1) y(9)(2)(2) y(9)(2)(3)
 y(9)(3)(1) y(9)(3)(2) y(9)(3)(3) y(9)(4)(1) y(9)(4)(2) y(9)(4)(3)
 y(9)(5)(1) y(9)(5)(2) y(9)(5)(3) y(9)(6)(1) y(9)(6)(2) y(9)(6)(3)
 y(9)(7)(1) y(9)(7)(2) y(9)(7)(3) y(9)(8)(1) y(9)(8)(2) y(9)(8)(3)
Generals
 F(1)(2) F(1)(3) F(1)(4) F(1)(5) F(1)(6) F(1)(7) F(1)(8) F(1)(9) F(2)(1)
 F(2)(3) F(2)(4) F(2)(5) F(2)(6) F(2)(7) F(2)(8) F(2)(9) F(3)(1) F(3)(2)
 F(3)(4) F(3)(5) F(3)(6) F(3)(7) F(3)(8) F(3)(9) F(4)(1) F(4)(2) F(4)(3)
 F(4)(5) F(4)(6) F(4)(7) F(4)(8) F(4)(9) F(5)(1) F(5)(2) F(5)(3) F(5)(4)
 F(5)(6) F(5)(7) F(5)(8) F(5)(9) F(6)(1) F(6)(2) F(6)(3) F(6)(4) F(6)(5)
 F(6)(7) F(6)(8) F(6)(9) F(7)(1) F(7)(2) F(7)(3) F(7)(4) F(7)(5) F(7)(6)
 F(7)(8) F(7)(9) F(8)(1) F(8)(2) F(8)(3) F(8)(4) F(8)(5) F(8)(6) F(8)(7)
 F(8)(9) F(9)(1) F(9)(2) F(9)(3) F(9)(4) F(9)(5) F(9)(6) F(9)(7) F(9)(8)
 F(10)(1) F(10)(2) F(10)(3) F(10)(4) F(10)(5) F(10)(6) F(10)(7) F(10)(8)
 F(10)(9)
End
